p cnf 14 64
9 10 -12 0
3 -8 9 0
4 -8 -10 0
1 -3 11 0
-1 -13 14 0
-1 -7 14 0
2 6 12 0
-1 2 -9 0
3 -6 12 0
3 -8 10 0
-1 -5 11 0
-8 12 13 0
1 -3 -9 0
3 -10 -13 0
-3 -4 5 0
-1 10 -14 0
4 -8 12 0
-3 6 7 0
3 -5 -11 0
5 9 -13 0
-7 -9 -14 0
-4 -8 -9 0
-2 -5 -8 0
3 5 9 0
3 4 -10 0
-1 -2 -7 0
5 9 -10 0
-1 5 10 0
-4 -10 -13 0
-1 6 7 0
-4 -8 -11 0
6 7 9 0
2 -9 -13 0
2 3 8 0
5 12 14 0
-1 -12 13 0
-1 -7 11 0
4 6 -11 0
-6 8 9 0
3 -7 14 0
-8 -10 -13 0
-3 -6 -12 0
1 -9 14 0
5 -8 9 0
8 11 13 0
4 5 -9 0
6 7 -14 0
-2 3 -10 0
-1 -7 13 0
-1 8 9 0
8 -9 14 0
1 -8 14 0
-4 9 12 0
7 8 -9 0
3 10 -11 0
4 6 11 0
-6 9 14 0
1 3 -12 0
-6 10 -14 0
4 12 13 0
-7 8 12 0
-6 8 12 0
3 -4 13 0
-5 -6 11 0
